NAME /Users/henri/Research/solvers/instances/idol-instances/robust/collection/spp_dkp_Lefebvre_et_al_2026/shortest_path_6_10/uncertainty_sets/discrete_knapsack
ROWS
 N  OBJ
 L  primal_lower
COLUMNS
    MARKER    'MARKER'                 'INTORG'
    y[0,2]     OBJ        0
    y[0,2]     primal_lower -3.77
    y[0,3]     OBJ        0
    y[0,3]     primal_lower -0.12
    y[0,4]     OBJ        0
    y[0,4]     primal_lower -0.97
    y[0,5]     OBJ        0
    y[0,5]     primal_lower -2.83
    y[1,2]     OBJ        0
    y[1,2]     primal_lower -0.45
    y[1,5]     OBJ        0
    y[1,5]     primal_lower -2.84
    y[2,0]     OBJ        0
    y[2,0]     primal_lower -0.25
    y[2,1]     OBJ        0
    y[2,1]     primal_lower -4.4
    y[2,3]     OBJ        0
    y[2,3]     primal_lower -4.49
    y[2,4]     OBJ        0
    y[2,4]     primal_lower -2.39
    y[2,5]     OBJ        0
    y[2,5]     primal_lower -2.92
    y[3,0]     OBJ        0
    y[3,0]     primal_lower -3.51
    y[3,2]     OBJ        0
    y[3,2]     primal_lower -3.51
    y[3,4]     OBJ        0
    y[3,4]     primal_lower -1.91
    y[3,5]     OBJ        0
    y[3,5]     primal_lower -3.52
    y[4,0]     OBJ        0
    y[4,0]     primal_lower -1.94
    y[4,2]     OBJ        0
    y[4,2]     primal_lower -4.24
    y[4,3]     OBJ        0
    y[4,3]     primal_lower -3.13
    y[4,5]     OBJ        0
    y[4,5]     primal_lower -1.69
    y[5,0]     OBJ        0
    y[5,0]     primal_lower -3.94
    y[5,1]     OBJ        0
    y[5,1]     primal_lower -1.74
    y[5,2]     OBJ        0
    y[5,2]     primal_lower -0.44
    y[5,3]     OBJ        0
    y[5,3]     primal_lower -1.49
    y[5,4]     OBJ        0
    y[5,4]     primal_lower -1.9
    u[0,2]     OBJ        0
    u[0,2]     primal_lower 25
    u[0,3]     OBJ        0
    u[0,3]     primal_lower 39
    u[0,4]     OBJ        0
    u[0,4]     primal_lower 77
    u[0,5]     OBJ        0
    u[0,5]     primal_lower 60
    u[1,2]     OBJ        0
    u[1,2]     primal_lower 15
    u[1,5]     OBJ        0
    u[1,5]     primal_lower 85
    u[2,0]     OBJ        0
    u[2,0]     primal_lower 72
    u[2,1]     OBJ        0
    u[2,1]     primal_lower 89
    u[2,3]     OBJ        0
    u[2,3]     primal_lower 69
    u[2,4]     OBJ        0
    u[2,4]     primal_lower 23
    u[2,5]     OBJ        0
    u[2,5]     primal_lower 51
    u[3,0]     OBJ        0
    u[3,0]     primal_lower 18
    u[3,2]     OBJ        0
    u[3,2]     primal_lower 42
    u[3,4]     OBJ        0
    u[3,4]     primal_lower 11
    u[3,5]     OBJ        0
    u[3,5]     primal_lower 37
    u[4,0]     OBJ        0
    u[4,0]     primal_lower 9
    u[4,2]     OBJ        0
    u[4,2]     primal_lower 22
    u[4,3]     OBJ        0
    u[4,3]     primal_lower 92
    u[4,5]     OBJ        0
    u[4,5]     primal_lower 15
    u[5,0]     OBJ        0
    u[5,0]     primal_lower 52
    u[5,1]     OBJ        0
    u[5,1]     primal_lower 97
    u[5,2]     OBJ        0
    u[5,2]     primal_lower 96
    u[5,3]     OBJ        0
    u[5,3]     primal_lower 64
    u[5,4]     OBJ        0
    u[5,4]     primal_lower 56
    MARKER    'MARKER'                 'INTEND'
RHS
    RHS       primal_lower 110
BOUNDS
 LI BND       y[0,2]     0
 UI BND       y[0,2]     1
 LI BND       y[0,3]     0
 UI BND       y[0,3]     1
 LI BND       y[0,4]     0
 UI BND       y[0,4]     1
 LI BND       y[0,5]     0
 UI BND       y[0,5]     1
 LI BND       y[1,2]     0
 UI BND       y[1,2]     1
 LI BND       y[1,5]     0
 UI BND       y[1,5]     1
 LI BND       y[2,0]     0
 UI BND       y[2,0]     1
 LI BND       y[2,1]     0
 UI BND       y[2,1]     1
 LI BND       y[2,3]     0
 UI BND       y[2,3]     1
 LI BND       y[2,4]     0
 UI BND       y[2,4]     1
 LI BND       y[2,5]     0
 UI BND       y[2,5]     1
 LI BND       y[3,0]     0
 UI BND       y[3,0]     1
 LI BND       y[3,2]     0
 UI BND       y[3,2]     1
 LI BND       y[3,4]     0
 UI BND       y[3,4]     1
 LI BND       y[3,5]     0
 UI BND       y[3,5]     1
 LI BND       y[4,0]     0
 UI BND       y[4,0]     1
 LI BND       y[4,2]     0
 UI BND       y[4,2]     1
 LI BND       y[4,3]     0
 UI BND       y[4,3]     1
 LI BND       y[4,5]     0
 UI BND       y[4,5]     1
 LI BND       y[5,0]     0
 UI BND       y[5,0]     1
 LI BND       y[5,1]     0
 UI BND       y[5,1]     1
 LI BND       y[5,2]     0
 UI BND       y[5,2]     1
 LI BND       y[5,3]     0
 UI BND       y[5,3]     1
 LI BND       y[5,4]     0
 UI BND       y[5,4]     1
 LI BND       u[0,2]     0
 UI BND       u[0,2]     1
 LI BND       u[0,3]     0
 UI BND       u[0,3]     1
 LI BND       u[0,4]     0
 UI BND       u[0,4]     1
 LI BND       u[0,5]     0
 UI BND       u[0,5]     1
 LI BND       u[1,2]     0
 UI BND       u[1,2]     1
 LI BND       u[1,5]     0
 UI BND       u[1,5]     1
 LI BND       u[2,0]     0
 UI BND       u[2,0]     1
 LI BND       u[2,1]     0
 UI BND       u[2,1]     1
 LI BND       u[2,3]     0
 UI BND       u[2,3]     1
 LI BND       u[2,4]     0
 UI BND       u[2,4]     1
 LI BND       u[2,5]     0
 UI BND       u[2,5]     1
 LI BND       u[3,0]     0
 UI BND       u[3,0]     1
 LI BND       u[3,2]     0
 UI BND       u[3,2]     1
 LI BND       u[3,4]     0
 UI BND       u[3,4]     1
 LI BND       u[3,5]     0
 UI BND       u[3,5]     1
 LI BND       u[4,0]     0
 UI BND       u[4,0]     1
 LI BND       u[4,2]     0
 UI BND       u[4,2]     1
 LI BND       u[4,3]     0
 UI BND       u[4,3]     1
 LI BND       u[4,5]     0
 UI BND       u[4,5]     1
 LI BND       u[5,0]     0
 UI BND       u[5,0]     1
 LI BND       u[5,1]     0
 UI BND       u[5,1]     1
 LI BND       u[5,2]     0
 UI BND       u[5,2]     1
 LI BND       u[5,3]     0
 UI BND       u[5,3]     1
 LI BND       u[5,4]     0
 UI BND       u[5,4]     1
ENDATA
